(set-info :origin "SVCOMP13 benchmarks generated by Arie Gurfinkel")
(set-info :status unsat)
(set-logic HORN)
(declare-fun cp-rel-entry () Bool)
(declare-fun cp-rel-bb2.i.i16.i.i () Bool)
(declare-fun cp-rel-bb1.i.i (Real Real Real Real) Bool)
(assert |cp-rel-entry|)
(assert (forall ((?A Real) (?B Real) (?C Real) (?D Real) (?E Bool) )(let (($x430974 (and |cp-rel-entry| (<= ?D 0.0) (>= ?C 1.0) (<= ?C 1.0) (>= ?B 1.0) (<= ?B 1.0) (>= ?A 0.0) (<= ?A 0.0) (= ?E true) (>= ?D 0.0))))
(=> $x430974 (|cp-rel-bb1.i.i| ?A ?B ?C ?D))))
)
(assert (forall ((?A Real) (?B Real) (?C Real) (?D Real) (?E Real) (?F Real) (?G Real) (?H Real) (?I Bool) (?J Bool) (?K Bool) (?L Bool) (?M Bool) (?N Bool) (?O Real) (?P Real) (?Q Bool) (?R Bool) (?S Bool) (?T Bool) (?U Bool) (?V Bool) (?W Real) (?X Real) (?Y Bool) (?Z Bool) (?A1 Bool) (?B1 Bool) (?C1 Bool) (?D1 Bool) (?E1 Bool) (?F1 Real) (?G1 Bool) (?H1 Bool) (?I1 Bool) (?J1 Bool) (?K1 Bool) (?L1 Bool) (?M1 Real) (?N1 Real) (?O1 Real) (?P1 Real) (?Q1 Bool) (?R1 Bool) (?S1 Bool) (?T1 Bool) (?U1 Bool) (?V1 Bool) (?W1 Bool) (?X1 Bool) (?Y1 Bool) (?Z1 Bool) (?A2 Real) (?B2 Bool) (?C2 Bool) (?D2 Bool) (?E2 Real) (?F2 Bool) (?G2 Real) (?H2 Real) (?I2 Bool) (?J2 Real) (?K2 Real) (?L2 Bool) (?M2 Real) (?N2 Bool) (?O2 Bool) (?P2 Bool) (?Q2 Bool) (?R2 Bool) (?S2 Bool) )(let (($x407345 (|cp-rel-bb1.i.i| ?E ?F ?G ?H)))
(let (($x131064 (= ?D2 (and ?S2 ?R2))))
(let (($x866521 (or (not ?I) (and ?J ?K (not ?L)))))
(let (($x246929 (or (not ?I) ?K)))
(let (($x59250 (not ?M)))
(let (($x396556 (or $x59250 (and ?I ?N (<= ?O ?P) (>= ?O ?P)) (and ?J ?Q ?L (<= ?O ?B) (>= ?O ?B)))))
(let (($x790834 (or $x59250 (and ?N (not ?Q)) (and ?Q (not ?N)))))
(let (($x136160 (or (not ?R) (and ?M ?S (not ?T)))))
(let (($x472722 (or (not ?R) ?S)))
(let (($x320909 (not ?U)))
(let (($x202281 (or $x320909 (and ?R ?V (<= ?W ?X) (>= ?W ?X)) (and ?M ?Y ?T (<= ?W ?A) (>= ?W ?A)))))
(let (($x407008 (or $x320909 (and ?V (not ?Y)) (and ?Y (not ?V)))))
(let (($x478352 (or (not ?Z) (and ?U ?A1 ?B1))))
(let (($x842432 (or (not ?Z) ?A1)))
(let (($x474194 (not ?C1)))
(let (($x864956 (or $x474194 (and ?Z ?D1 ?E1 (<= ?F1 ?C) (>= ?F1 ?C)) (and ?U ?G1 (not ?B1) (<= ?F1 1.0) (>= ?F1 1.0)))))
(let (($x605861 (or $x474194 (and ?D1 (not ?G1)) (and ?G1 (not ?D1)))))
(let (($x168101 (or (not ?H1) (and ?C1 ?I1 (not ?J1)))))
(let (($x892704 (or (not ?H1) ?I1)))
(let (($x489726 (>= ?O1 ?O)))
(let (($x647204 (<= ?O1 ?O)))
(let (($x619421 (and ?Z ?R1 (not ?E1) (<= ?M1 0.0) (>= ?M1 0.0) (<= ?N1 0.0) (>= ?N1 0.0) $x647204 $x489726)))
(let (($x124523 (>= ?N1 ?F1)))
(let (($x413012 (<= ?N1 ?F1)))
(let (($x280350 (and ?C1 ?Q1 ?J1 (<= ?M1 ?D) (>= ?M1 ?D) $x413012 $x124523 $x647204 $x489726)))
(let (($x363903 (and ?H1 ?L1 (<= ?M1 ?D) (>= ?M1 ?D) $x413012 $x124523 (<= ?O1 ?P1) (>= ?O1 ?P1))))
(let (($x214027 (not ?K1)))
(let (($x508277 (or $x214027 (and ?L1 (not ?Q1) (not ?R1)) (and ?Q1 (not ?L1) (not ?R1)) (and ?R1 (not ?L1) (not ?Q1)))))
(let (($x134909 (or (not ?S1) (and ?K1 ?T1 ?U1))))
(let (($x690168 (or (not ?S1) ?T1)))
(let (($x359378 (or (not ?V1) (and ?S1 ?W1 (not ?X1)))))
(let (($x873562 (or (not ?V1) ?W1)))
(let (($x628866 (or (not ?Y1) (and ?V1 ?Z1 (<= ?A2 ?M1) (>= ?A2 ?M1)) (and ?S1 ?B2 ?X1 (<= ?A2 1.0) (>= ?A2 1.0)) (and ?K1 ?C2 (not ?U1) (<= ?A2 ?M1) (>= ?A2 ?M1)))))
(let (($x388976 (or (not ?Y1) (and ?Z1 (not ?B2) (not ?C2)) (and ?B2 (not ?Z1) (not ?C2)) (and ?C2 (not ?Z1) (not ?B2)))))
(let (($x267647 (= ?Y1 true)))
(let (($x487873 (= ?L (= ?E2 0.0))))
(let (($x178339 (= ?G2 (ite ?F2 1.0 0.0))))
(let (($x395686 (= ?T (= ?H2 0.0))))
(let (($x236693 (= ?X (ite ?I2 1.0 0.0))))
(let (($x277990 (= ?B1 (= ?J2 0.0))))
(let (($x535181 (= ?E1 (= ?K2 0.0))))
(let (($x420758 (= ?L2 (not (<= ?O 0.0)))))
(let (($x390067 (= ?M2 (+ (~ 1.0) ?O))))
(let (($x199722 (= ?P1 (ite ?L2 ?M2 ?O))))
(let (($x201075 (= ?N2 (not (= ?N1 0.0)))))
(let (($x286713 (= ?O2 (= ?M1 0.0))))
(let (($x211453 (= ?U1 (and ?N2 ?O2))))
(let (($x305850 (= ?X1 (not (<= ?O1 1.0)))))
(let (($x518025 (= ?P2 (= ?W 0.0))))
(let (($x540248 (= ?Q2 (= ?O1 2.0))))
(let (($x282495 (= ?R2 (= ?A2 0.0))))
(let (($x195405 (= ?S2 (and ?Q2 ?P2))))
(let (($x148252 (and (|cp-rel-bb1.i.i| ?A ?B ?C ?D) $x195405 $x282495 $x540248 $x518025 $x305850 $x211453 $x286713 $x201075 $x199722 $x390067 $x420758 (= ?J1 (= ?D 0.0)) $x535181 $x277990 $x236693 (= ?I2 (= ?A 0.0)) $x395686 (= ?P (+ ?G2 ?B)) $x178339 (= ?F2 (not (<= 2.0 ?B))) $x487873 (>= ?H ?A2) (<= ?H ?A2) (>= ?G ?N1) (<= ?G ?N1) (>= ?F ?O1) (<= ?F ?O1) (>= ?E ?W) (<= ?E ?W) (not (= ?D2 true)) $x267647 $x388976 $x628866 $x873562 $x359378 $x690168 $x134909 $x508277 (or $x214027 $x363903 $x280350 $x619421) $x892704 $x168101 $x605861 $x864956 $x842432 $x478352 $x407008 $x202281 $x472722 $x136160 $x790834 $x396556 $x246929 $x866521 $x131064)))
(=> $x148252 $x407345)))))))))))))))))))))))))))))))))))))))))))))))))))))))
)
(assert (forall ((?A Real) (?B Real) (?C Real) (?D Real) (?E Bool) (?F Bool) (?G Bool) (?H Bool) (?I Bool) (?J Bool) (?K Real) (?L Real) (?M Bool) (?N Bool) (?O Bool) (?P Bool) (?Q Bool) (?R Bool) (?S Real) (?T Real) (?U Bool) (?V Bool) (?W Bool) (?X Bool) (?Y Bool) (?Z Bool) (?A1 Bool) (?B1 Real) (?C1 Bool) (?D1 Bool) (?E1 Bool) (?F1 Bool) (?G1 Bool) (?H1 Bool) (?I1 Real) (?J1 Real) (?K1 Real) (?L1 Real) (?M1 Bool) (?N1 Bool) (?O1 Bool) (?P1 Bool) (?Q1 Bool) (?R1 Bool) (?S1 Bool) (?T1 Bool) (?U1 Bool) (?V1 Bool) (?W1 Real) (?X1 Bool) (?Y1 Bool) (?Z1 Bool) (?A2 Real) (?B2 Bool) (?C2 Real) (?D2 Real) (?E2 Bool) (?F2 Real) (?G2 Real) (?H2 Bool) (?I2 Real) (?J2 Bool) (?K2 Bool) (?L2 Bool) (?M2 Bool) (?N2 Bool) (?O2 Bool) )(let (($x131064 (= ?Z1 (and ?O2 ?N2))))
(let (($x866521 (or (not ?E) (and ?F ?G (not ?H)))))
(let (($x246929 (or (not ?E) ?G)))
(let (($x59250 (not ?I)))
(let (($x446483 (or $x59250 (and ?E ?J (<= ?K ?L) (>= ?K ?L)) (and ?F ?M ?H (<= ?K ?B) (>= ?K ?B)))))
(let (($x790834 (or $x59250 (and ?J (not ?M)) (and ?M (not ?J)))))
(let (($x136160 (or (not ?N) (and ?I ?O (not ?P)))))
(let (($x472722 (or (not ?N) ?O)))
(let (($x320909 (not ?Q)))
(let (($x201585 (or $x320909 (and ?N ?R (<= ?S ?T) (>= ?S ?T)) (and ?I ?U ?P (<= ?S ?A) (>= ?S ?A)))))
(let (($x407008 (or $x320909 (and ?R (not ?U)) (and ?U (not ?R)))))
(let (($x478352 (or (not ?V) (and ?Q ?W ?X))))
(let (($x842432 (or (not ?V) ?W)))
(let (($x474194 (not ?Y)))
(let (($x612021 (or $x474194 (and ?V ?Z ?A1 (<= ?B1 ?C) (>= ?B1 ?C)) (and ?Q ?C1 (not ?X) (<= ?B1 1.0) (>= ?B1 1.0)))))
(let (($x605861 (or $x474194 (and ?Z (not ?C1)) (and ?C1 (not ?Z)))))
(let (($x168101 (or (not ?D1) (and ?Y ?E1 (not ?F1)))))
(let (($x892704 (or (not ?D1) ?E1)))
(let (($x489726 (>= ?K1 ?K)))
(let (($x647204 (<= ?K1 ?K)))
(let (($x619421 (and ?V ?N1 (not ?A1) (<= ?I1 0.0) (>= ?I1 0.0) (<= ?J1 0.0) (>= ?J1 0.0) $x647204 $x489726)))
(let (($x124523 (>= ?J1 ?B1)))
(let (($x413012 (<= ?J1 ?B1)))
(let (($x508809 (and ?Y ?M1 ?F1 (<= ?I1 ?D) (>= ?I1 ?D) $x413012 $x124523 $x647204 $x489726)))
(let (($x64004 (and ?D1 ?H1 (<= ?I1 ?D) (>= ?I1 ?D) $x413012 $x124523 (<= ?K1 ?L1) (>= ?K1 ?L1))))
(let (($x214027 (not ?G1)))
(let (($x508277 (or $x214027 (and ?H1 (not ?M1) (not ?N1)) (and ?M1 (not ?H1) (not ?N1)) (and ?N1 (not ?H1) (not ?M1)))))
(let (($x134909 (or (not ?O1) (and ?G1 ?P1 ?Q1))))
(let (($x690168 (or (not ?O1) ?P1)))
(let (($x359378 (or (not ?R1) (and ?O1 ?S1 (not ?T1)))))
(let (($x873562 (or (not ?R1) ?S1)))
(let (($x628866 (or (not ?U1) (and ?R1 ?V1 (<= ?W1 ?I1) (>= ?W1 ?I1)) (and ?O1 ?X1 ?T1 (<= ?W1 1.0) (>= ?W1 1.0)) (and ?G1 ?Y1 (not ?Q1) (<= ?W1 ?I1) (>= ?W1 ?I1)))))
(let (($x388976 (or (not ?U1) (and ?V1 (not ?X1) (not ?Y1)) (and ?X1 (not ?V1) (not ?Y1)) (and ?Y1 (not ?V1) (not ?X1)))))
(let (($x267647 (= ?U1 true)))
(let (($x865456 (= ?Z1 true)))
(let (($x487873 (= ?H (= ?A2 0.0))))
(let (($x178339 (= ?C2 (ite ?B2 1.0 0.0))))
(let (($x395686 (= ?P (= ?D2 0.0))))
(let (($x236693 (= ?T (ite ?E2 1.0 0.0))))
(let (($x277990 (= ?X (= ?F2 0.0))))
(let (($x535181 (= ?A1 (= ?G2 0.0))))
(let (($x420758 (= ?H2 (not (<= ?K 0.0)))))
(let (($x390067 (= ?I2 (+ (~ 1.0) ?K))))
(let (($x199722 (= ?L1 (ite ?H2 ?I2 ?K))))
(let (($x201075 (= ?J2 (not (= ?J1 0.0)))))
(let (($x286713 (= ?K2 (= ?I1 0.0))))
(let (($x211453 (= ?Q1 (and ?J2 ?K2))))
(let (($x305850 (= ?T1 (not (<= ?K1 1.0)))))
(let (($x518025 (= ?L2 (= ?S 0.0))))
(let (($x540248 (= ?M2 (= ?K1 2.0))))
(let (($x282495 (= ?N2 (= ?W1 0.0))))
(let (($x195405 (= ?O2 (and ?M2 ?L2))))
(let (($x407345 (|cp-rel-bb1.i.i| ?A ?B ?C ?D)))
(let (($x51222 (and $x407345 $x195405 $x282495 $x540248 $x518025 $x305850 $x211453 $x286713 $x201075 $x199722 $x390067 $x420758 (= ?F1 (= ?D 0.0)) $x535181 $x277990 $x236693 (= ?E2 (= ?A 0.0)) $x395686 (= ?L (+ ?C2 ?B)) $x178339 (= ?B2 (not (<= 2.0 ?B))) $x487873 $x865456 $x267647 $x388976 $x628866 $x873562 $x359378 $x690168 $x134909 $x508277 (or $x214027 $x64004 $x508809 $x619421) $x892704 $x168101 $x605861 $x612021 $x842432 $x478352 $x407008 $x201585 $x472722 $x136160 $x790834 $x446483 $x246929 $x866521 $x131064)))
(=> $x51222 |cp-rel-bb2.i.i16.i.i|))))))))))))))))))))))))))))))))))))))))))))))))))))))))
)
(assert (not cp-rel-bb2.i.i16.i.i))
(check-sat)
